magmas/benchmarks/smt2/input3/Equation1816_implies_Equation4040.p.smt2
(declare-sort $$unsorted 0)
(declare-fun tptp.op ($$unsorted $$unsorted) $$unsorted)
(assert (forall ((X0 $$unsorted) (X1 $$unsorted) (X2 $$unsorted) (X3 $$unsorted)) (= X0 (tptp.op (tptp.op X1 X2) (tptp.op (tptp.op X3 X2) X0)))))
(assert (not (forall ((X0 $$unsorted) (X1 $$unsorted) (X2 $$unsorted) (X3 $$unsorted)) (= (tptp.op X0 X1) (tptp.op (tptp.op X2 (tptp.op X3 X0)) X1)))))
(set-info :filename Equation1816_implies_Equation4040)
(check-sat-assuming ( true ))
